c instance by G2
c solution = 11110111111111110
c Known solution cost is 795 
p cnf 17 30
w 45 56 94 55 3 75 92 12 21 34 55 72 44 64 37 27 9
-7 -15 13 0
-17 -7 -10 0
-2 14 -8 0
11 14 -5 0
-5 -15 1 0
-3 15 -6 0
5 -14 12 0
-7 4 5 0
-7 8 17 0
13 4 -8 0
-9 4 10 0
-13 9 -7 0
-10 -5 -14 0
-14 6 -11 0
-15 -1 -5 0
10 -3 -2 0
1 9 -17 0
12 17 14 0
7 -3 -8 0
-12 11 10 0
6 -7 -8 0
-15 12 -16 0
-11 1 -10 0
-7 -15 16 0
-17 2 10 0
-17 -3 -12 0
7 -14 17 0
-4 -15 11 0
2 -9 17 0
3 -7 17 0
